proyfinal/src/viki/013/experimentInOfficeAgust.take6.output/df9fe99a-7fd6-41d0-a2b8-bc02eeb35c8e.als.dat
{'cnf.clauses': '118081',
 'cnf.totvars': '69608',
 'conflict literals': '1',
 'conflicts': '2',
 'decisions': '768',
 'memused.mb': '14.47',
 'outcome': 'UNSAT',
 'propagations': '18982',
 'restarts': '1',
 'solver.msecs': 31,
 'task.msecs': 93}
