proyfinal/src/viki/013/experimentInOfficeAgust.take6.output/df9fe99a-7fd6-41d0-a2b8-bc02eeb35c8e.als.out
Reading from standard input... Use '--help' for help.
============================[ Problem Statistics ]=============================
|                                                                             |
|  Number of variables:         69608                                         |
|  Number of clauses:          118081                                         |
|  Parse time:                   0.02 s                                       |
|                                                                             |
============================[ Search Statistics ]==============================
| Conflicts |          ORIGINAL         |          LEARNT          | Progress |
|           |    Vars  Clauses Literals |    Limit  Clauses Lit/Cl |          |
===============================================================================
===============================================================================
restarts              : 1
conflicts             : 2              (63 /sec)
decisions             : 768            (0.00 % random) (24378 /sec)
propagations          : 18982          (602527 /sec)
conflict literals     : 1              (0.00 % deleted)
Memory used           : 14.47 MB
CPU time              : 0.031504 s

UNSATISFIABLE
